; DUP1 DUP2 GT ISZERO => PUSH 0x01
(set-option :produce-proofs true)
; 
(set-info :status unknown)
(declare-fun storage_t ((_ BitVec 256) Int (_ BitVec 256)) (_ BitVec 256))
(declare-fun storage_s ((_ BitVec 256) Int (_ BitVec 256)) (_ BitVec 256))
(declare-fun exc_halt_t (Int) Bool)
(declare-fun exc_halt_s (Int) Bool)
(declare-fun sc_t (Int) (_ BitVec 6))
(declare-fun stack_t ((_ BitVec 256) Int (_ BitVec 6)) (_ BitVec 256))
(declare-fun stack_s ((_ BitVec 256) Int (_ BitVec 6)) (_ BitVec 256))
(declare-fun sc_s (Int) (_ BitVec 6))
(declare-fun used_gas_t ((_ BitVec 256) Int) Int)
(declare-fun used_gas_s ((_ BitVec 256) Int) Int)
(assert
 (exists ((x_0 (_ BitVec 256)) )(let (($x8163 (forall ((w (_ BitVec 256)) )(let ((?x3647 (storage_t x_0 1 w)))
 (let ((?x994 (storage_s x_0 4 w)))
 (= ?x994 ?x3647))))
 ))
 (let (($x8377 (exc_halt_t 1)))
 (let (($x7172 (exc_halt_s 4)))
 (let (($x6210 (= $x7172 $x8377)))
 (let (($x2184 (forall ((n (_ BitVec 6)) )(let ((?x6157 (stack_t x_0 1 n)))
 (let ((?x6781 (stack_s x_0 4 n)))
 (let (($x476 (= ?x6781 ?x6157)))
 (or $x476 (bvsle (sc_t 1) n))))))
 ))
 (let ((?x7154 (sc_t 1)))
 (let ((?x4305 (sc_s 4)))
 (let (($x1088 (= ?x4305 ?x7154)))
 (let ((?x10032 (used_gas_t x_0 0)))
 (let ((?x5429 (used_gas_s x_0 0)))
 (let (($x9839 (= ?x5429 ?x10032)))
 (let (($x6727 (forall ((w (_ BitVec 256)) )(let ((?x11096 (storage_t x_0 0 w)))
 (let ((?x2472 (storage_s x_0 0 w)))
 (= ?x2472 ?x11096))))
 ))
 (let (($x56 (exc_halt_t 0)))
 (let (($x57 (exc_halt_s 0)))
 (let (($x58 (= $x57 $x56)))
 (let (($x6588 (forall ((n (_ BitVec 6)) )(let ((?x63 (sc_t 0)))
 (let (($x11489 (bvsle ?x63 n)))
 (let ((?x2949 (stack_t x_0 0 n)))
 (let ((?x7746 (stack_s x_0 0 n)))
 (let (($x4044 (= ?x7746 ?x2949)))
 (or $x4044 $x11489)))))))
 ))
 (let ((?x63 (sc_t 0)))
 (let ((?x72 (sc_s 0)))
 (let (($x73 (= ?x72 ?x63)))
 (let (($x6488 (= $x8377 (or $x56 (not (= ((_ extract 6 6) (bvadd (_ bv1 7) (concat (_ bv0 1) ?x63))) (_ bv0 1)))))))
 (let (($x1787 (forall ((w (_ BitVec 256)) )(let ((?x11096 (storage_t x_0 0 w)))
 (let ((?x3647 (storage_t x_0 1 w)))
 (= ?x3647 ?x11096))))
 ))
 (let (($x9016 (forall ((n (_ BitVec 6)) )(let ((?x63 (sc_t 0)))
 (let (($x11489 (bvsle ?x63 n)))
 (or (= (stack_t x_0 1 n) (stack_t x_0 0 n)) $x11489))))
 ))
 (let (($x11438 (= $x7172 (or (exc_halt_s 3) (not (bvsle (_ bv0 6) (bvadd (_ bv63 6) (sc_s 3))))))))
 (let (($x3344 (forall ((w (_ BitVec 256)) )(let ((?x3744 (storage_s x_0 3 w)))
 (let ((?x994 (storage_s x_0 4 w)))
 (= ?x994 ?x3744))))
 ))
 (let (($x2996 (forall ((n (_ BitVec 6)) )(or (bvsle (bvadd (_ bv63 6) (sc_s 3)) n) (= (stack_s x_0 4 n) (stack_s x_0 3 n))))
 ))
 (let ((?x10120 (ite (= (stack_s x_0 3 (bvadd (_ bv63 6) (sc_s 3))) (_ bv0 256)) (_ bv1 256) (_ bv0 256))))
 (let (($x292 (exc_halt_s 3)))
 (let (($x9290 (= $x292 (or (exc_halt_s 2) (not (bvsle (_ bv0 6) (bvadd (_ bv62 6) (sc_s 2))))))))
 (let (($x11188 (forall ((w (_ BitVec 256)) )(let ((?x1741 (storage_s x_0 2 w)))
 (let ((?x3744 (storage_s x_0 3 w)))
 (= ?x3744 ?x1741))))
 ))
 (let (($x2132 (forall ((n (_ BitVec 6)) )(or (= (stack_s x_0 3 n) (stack_s x_0 2 n)) (bvsle (bvadd (_ bv62 6) (sc_s 2)) n)))
 ))
 (let ((?x218 (sc_s 2)))
 (let ((?x4018 (bvadd (_ bv63 6) ?x218)))
 (let ((?x9801 (stack_s x_0 2 ?x4018)))
 (let ((?x275 (sc_s 3)))
 (let ((?x7749 (bvadd (_ bv63 6) ?x275)))
 (let ((?x3791 (stack_s x_0 3 ?x7749)))
 (let (($x5766 (= ?x3791 (ite (bvule ?x9801 (stack_s x_0 2 (bvadd (_ bv62 6) ?x218))) (_ bv0 256) (_ bv1 256)))))
 (let (($x189 (exc_halt_s 1)))
 (let (($x7062 (or $x189 (not (bvsle (_ bv0 6) (bvadd (_ bv62 6) (sc_s 1)))) (not (= ((_ extract 6 6) (bvadd (_ bv1 7) (concat (_ bv0 1) (sc_s 1)))) (_ bv0 1))))))
 (let (($x247 (exc_halt_s 2)))
 (let (($x3702 (forall ((w (_ BitVec 256)) )(let ((?x1949 (storage_s x_0 1 w)))
 (let ((?x1741 (storage_s x_0 2 w)))
 (= ?x1741 ?x1949))))
 ))
 (let (($x1413 (forall ((n (_ BitVec 6)) )(or (bvsle (bvadd (_ bv62 6) (sc_s 1)) n) (= (stack_s x_0 2 n) (stack_s x_0 1 n))))
 ))
 (let ((?x154 (sc_s 1)))
 (let ((?x1096 (bvadd (_ bv63 6) ?x154)))
 (let ((?x2714 (stack_s x_0 1 ?x1096)))
 (let ((?x9584 (bvadd (_ bv62 6) ?x154)))
 (let ((?x10933 (stack_s x_0 1 ?x9584)))
 (let (($x6839 (or $x57 (not (bvsle (_ bv0 6) (bvadd (_ bv63 6) ?x72))) (not (= ((_ extract 6 6) (bvadd (_ bv1 7) (concat (_ bv0 1) ?x72))) (_ bv0 1))))))
 (let (($x9010 (forall ((w (_ BitVec 256)) )(let ((?x2472 (storage_s x_0 0 w)))
 (let ((?x1949 (storage_s x_0 1 w)))
 (= ?x1949 ?x2472))))
 ))
 (let (($x2950 (forall ((n (_ BitVec 6)) )(or (bvsle (bvadd (_ bv63 6) (sc_s 0)) n) (= (stack_s x_0 1 n) (stack_s x_0 0 n))))
 ))
 (let ((?x3834 (bvadd (_ bv63 6) ?x72)))
 (let ((?x4757 (stack_s x_0 0 ?x3834)))
 (let (($x6360 (forall ((w (_ BitVec 256)) )(let ((?x2472 (storage_s x_0 0 w)))
 (= ?x2472 (_ bv0 256))))
 ))
 (let (($x1449 (= ?x5429 0)))
 (let (($x910 (= (stack_s x_0 0 (_ bv0 6)) x_0)))
 (let (($x7315 (= ?x72 (_ bv1 6))))
 (and $x7315 $x910 (not $x57) $x1449 $x6360 (= ?x2714 ?x4757) (= (stack_s x_0 1 ?x3834) ?x4757) (= (used_gas_s x_0 1) (+ 3 ?x5429)) (= ?x154 (bvadd (_ bv1 6) ?x72)) $x2950 $x9010 (= $x189 $x6839) (= ?x9801 ?x10933) (= (stack_s x_0 2 ?x9584) ?x10933) (= (stack_s x_0 2 ?x1096) ?x2714) (= (used_gas_s x_0 2) (+ 3 (used_gas_s x_0 1))) (= ?x218 (bvadd (_ bv1 6) ?x154)) $x1413 $x3702 (= $x247 $x7062) $x5766 (= (used_gas_s x_0 3) (+ 3 (used_gas_s x_0 2))) (= ?x275 ?x4018) $x2132 $x11188 $x9290 (= (stack_s x_0 4 (bvadd (_ bv63 6) ?x4305)) ?x10120) (= (used_gas_s x_0 4) (+ 3 (used_gas_s x_0 3))) (= ?x4305 ?x275) $x2996 $x3344 $x11438 (= (stack_t x_0 1 ?x63) (_ bv1 256)) (= (used_gas_t x_0 1) (+ 3 ?x10032)) (= ?x7154 (bvadd (_ bv1 6) ?x63)) $x9016 $x1787 $x6488 $x73 $x6588 $x58 $x6727 $x9839 (not (and $x1088 $x2184 $x6210 $x8163))))))))))))))))))))))))))))))))))))))))))))))))))))))))))))
 )
(check-sat)
(get-proof)
